#T RCIS(NStates=5)/6-31+G(D) Density=All Test 
 
Methylenecyclopropene Excited States
 
0,1
C
C,1,cc1
C,2,cc2,1,ccc
C,2,cc2,1,ccc,3,180.
H,1,ch1,2,hcc1,3,180.
H,1,ch1,2,hcc1,4,180.
H,3,ch2,4,hcc2,2,180.
H,4,ch2,3,hcc2,2,180.
 
cc1=1.32989
cc2=1.444716
ch1=1.083159
ch2=1.080315
ccc=152.680867
hcc1=120.991079
hcc2=148.067815

 
